100
1000
495
495
494
494
486
485
484
479
469
465
462
456
450
447
447
444
441
437
436
423
419
414
410
410
405
404
400
396
395
389
388
387
385
380
374
373
373
370
369
369
368
366
364
352
351
342
342
337
335
333
331
326
325
319
317
313
303
294
293
293
292
292
285
284
281
257
257
253
250
247
245
243
241
240
238
237
234
233
233
232
229
228
224
223
222
205
202
198
196
192
190
189
183
182
182
181
178
175
172
170
